<number of tasks>
50

<cycle time>
1000

<order strength>
0.2


<task times>
1 53
2 230
3 29
4 54
5 315
6 104
7 27
8 62
9 144
10 273
11 108
12 174
13 258
14 153
15 220
16 51
17 192
18 124
19 96
20 235
21 176
22 106
23 138
24 27
25 107
26 63
27 113
28 228
29 107
30 99
31 106
32 119
33 156
34 84
35 138
36 97
37 38
38 184
39 204
40 284
41 197
42 217
43 44
44 82
45 127
46 51
47 246
48 91
49 170
50 40

<precedence relations>
1,10
1,12
2,10
2,11
2,13
4,42
8,9
9,15
9,16
9,17
10,21
11,36
12,30
12,34
12,49
13,14
14,23
14,24
15,19
16,20
16,21
16,25
17,18
17,22
18,41
19,30
20,28
21,27
21,32
21,37
22,31
23,26
24,29
25,26
25,38
28,33
28,37
28,38
29,36
30,35
32,34
32,39
32,41
34,44
35,42
35,47
36,41
36,43
36,45
37,40
39,46
40,49
41,50
47,48

<end>
